GLPSOL--GLPK LP/MIP Solver 5.0
Parameter(s) specified in the command line:
 --lp ../modeles/3_14.lp --log 3_14.log
Reading problem data from '../modeles/3_14.lp'...
55 rows, 90 columns, 303 non-zeros
42 integer variables, all of which are binary
154 lines were read
GLPK Integer Optimizer 5.0
55 rows, 90 columns, 303 non-zeros
42 integer variables, all of which are binary
Preprocessing...
42 constraint coefficient(s) were reduced
55 rows, 87 columns, 300 non-zeros
42 integer variables, all of which are binary
Scaling...
 A: min|aij| =  8.163e-02  max|aij| =  4.000e+00  ratio =  4.900e+01
GM: min|aij| =  3.780e-01  max|aij| =  2.646e+00  ratio =  7.000e+00
EQ: min|aij| =  1.429e-01  max|aij| =  1.000e+00  ratio =  7.000e+00
2N: min|aij| =  1.250e-01  max|aij| =  1.361e+00  ratio =  1.089e+01
Constructing initial basis...
Size of triangular part is 55
Solving LP relaxation...
GLPK Simplex Optimizer 5.0
55 rows, 87 columns, 300 non-zeros
      0: obj =   6.000000000e+00 inf =   1.450e+01 (7)
     18: obj =  -1.037634409e+00 inf =   0.000e+00 (0)
*    46: obj =  -1.728571429e+00 inf =   6.212e-18 (0)
OPTIMAL LP SOLUTION FOUND
Integer optimization begins...
Long-step dual simplex will be used
+    46: mip =     not found yet >=              -inf        (1; 0)
+    54: >>>>>  -1.547619048e+00 >=  -1.728571429e+00  11.7% (6; 0)
+    56: >>>>>  -1.728571429e+00 >=  -1.728571429e+00 < 0.1% (5; 1)
+    56: mip =  -1.728571429e+00 >=     tree is empty   0.0% (0; 11)
INTEGER OPTIMAL SOLUTION FOUND
Time used:   0.0 secs
Memory used: 0.2 Mb (188549 bytes)
